tsp_instances/TSP50/instance83.tsp
NODE_COORD_SECTION
0 40 88
1 87 165
2 93 171
3 34 200
4 111 60
5 159 114
6 45 152
7 4 2
8 61 136
9 54 119
10 122 194
11 25 28
12 128 168
13 64 55
14 127 37
15 130 168
16 89 125
17 181 188
18 124 131
19 37 31
20 100 139
21 159 159
22 18 100
23 163 96
24 109 47
25 159 95
26 107 185
27 59 9
28 165 128
29 86 83
30 62 17
31 90 90
32 51 42
33 5 140
34 137 68
35 120 41
36 132 144
37 167 62
38 7 132
39 100 144
40 98 199
41 112 12
42 31 14
43 49 37
44 45 131
45 154 120
46 177 99
47 49 154
48 76 54
49 114 49
