tsp_instances/TSP50/instance83.opt.tour
TOUR_SECTION
1
23
39
34
4
48
7
45
10
9
17
21
40
2
3
27
41
11
18
22
16
13
37
19
46
29
6
47
24
26
38
35
5
25
50
36
15
42
31
28
43
8
12
20
44
33
14
49
30
32
-1